0 41 198 167 213 94 51 135 74 25 84 256 240 146 270 0
0 127 308 76 286 32 271 279 348 263 294 330 285 98 334 0
0 109 71 108 112 338 207 180 272 147 310 148 91 342 161 0
0 318 190 38 226 8 243 216 87 346 79 192 13 39 273 0
0 220 92 56 142 234 162 261 126 12 254 125 337 5 315 67 80 0
